32353 31543 100 99 97 96 95 94 93 92 91 90 89 88 86 85 84 83 82 81 78 77 76 75 74 73 72 70 69 68 67 66 65 63 62 60 59 58 57 55 52 51 50 49 47 44 43 41 40 39 38 37 36 35 34 33 32 31 30 29 28 27 26 25 24 23 22 21 19 18 17 16 13 12 11 10 9 8 7 6 5 3 2 